51
100
70	11
69	11
68	9
67	10
66	10
65	10
64	14
63	11
62	8
61	12
60	10
59	13
58	8
57	5
56	13
55	10
54	13
53	9
52	13
51	13
50	9
49	11
48	5
47	5
46	10
45	8
44	10
43	11
42	8
41	7
40	15
39	7
38	11
37	4
36	6
35	15
34	7
33	8
32	13
31	10
30	9
29	6
28	10
27	7
26	10
25	14
24	8
23	8
22	13
21	14
20	8
